119 953 10 0 1439
628 181 2 1180 1239
246 629 2 1296 1365
1995 123 2 1399 1420
2403 1685 2 260 270
165 1292 3 1336 1437
2392 397 2 808 858
1493 1077 2 594 669
1662 1865 4 393 486
1667 1352 1 64 86
1692 582 2 808 907
